# LAMMPS input script
# author : Simon Gravelle
# lammpstutorials.github.io

# -------------	Initialization
units			lj
dimension 		3
atom_style		atomic
pair_style		lj/cut 2.5
boundary		p p p

# ------------- System definition
region			mybox block -30 30 -30 30 -30 30
create_box		2 mybox
region			mycylin cylinder z 0 0 15 INF INF side in
region			mycylou cylinder z 0 0 15 INF INF side out
create_atoms	1 random 1000 341341 mycylou
create_atoms	2 random 150 127569 mycylin

# ------------- Simulation settings
mass			1 1
mass			2 1
pair_coeff		1 1 1.0 1.0
pair_coeff		2 2 0.5 3.0
neigh_modify	every 1 delay 5 check yes

# ------------- Run
thermo			10
minimize		1.0e-4 1.0e-6 1000 10000
reset_timestep	0 # better reset the timestep after minimise

dump 			mydmp all atom 1000 dump.lammpstrj

group			mytype1 type 1
group			mytype2 type 2
group			incyl region mycylin
group			oucyl region mycylou
group			type1in intersect mytype1 incyl
group			type2ou intersect mytype2 oucyl
delete_atoms	group type1in
delete_atoms	group type2ou

variable		Ntype1in equal count(mytype1,mycylin)
variable		Ntype1ou equal count(mytype1,mycylou)
variable		Ntype2in equal count(mytype2,mycylin)
variable		Ntype2ou equal count(mytype2,mycylou)
fix				myat1 all ave/time 1000 1 1000 v_Ntype1in v_Ntype1ou file population1vstime.dat
fix				myat2 all ave/time 1000 1 1000 v_Ntype2in v_Ntype2ou file population2vstime.dat


velocity 		all create 1.0 4928459 mom yes rot yes dist gaussian
fix				mynve all nve
fix				mylgv all langevin 1.0 1.0 0.1 1530917 zero yes
timestep		0.005
thermo			5000
run				1500000
write_data		data.equil3D.lammps
